3 100 1625
9 8 5 6 7 9 4 7 3 8
4 4 4
3 6 2 1
8 1 4 7
7 8 8 7
0 40.0 50.0 0.0 0.0 0 240
2 25.0 85.0 10.0 20.0 145 175 50 0 0 0 1 0 1 0 0 0 0
3 22.0 75.0 10.0 30.0 50 80 97 0 0 0 1 0 0 0 0 0 1
4 22.0 85.0 10.0 10.0 109 139 87 1 1 0 0 0 1 0 0 0 0
5 20.0 80.0 10.0 40.0 141 171 22 0 1 0 0 0 0 0 0 0 1
6 20.0 85.0 10.0 20.0 41 71 42 0 0 0 0 1 1 0 0 0 0
7 18.0 75.0 10.0 20.0 95 125 43 0 0 0 0 0 1 0 0 0 0
8 15.0 75.0 10.0 20.0 79 109 53 1 1 0 0 0 1 0 0 1 0
9 15.0 80.0 10.0 10.0 91 121 3 1 0 0 1 0 0 0 0 0 0
10 10.0 35.0 10.0 20.0 91 121 96 1 0 0 0 1 0 1 0 0 1
11 10.0 40.0 10.0 30.0 119 149 36 0 0 0 0 0 0 0 0 0 1
12 8.0 40.0 10.0 40.0 59 89 15 0 0 0 0 0 1 0 0 0 0
13 8.0 45.0 10.0 20.0 64 94 99 1 1 0 0 1 0 0 1 0 1
14 5.0 35.0 10.0 10.0 142 172 98 1 0 0 0 0 0 0 0 0 0
15 5.0 45.0 10.0 10.0 35 65 91 0 0 0 0 0 1 0 0 0 0
16 2.0 40.0 10.0 20.0 58 88 78 1 0 0 0 0 0 0 0 0 0
17 0.0 40.0 10.0 20.0 72 102 72 1 1 0 0 0 0 0 0 0 0
18 0.0 45.0 10.0 20.0 149 179 8 0 0 0 0 0 1 0 0 0 0
19 44.0 5.0 10.0 20.0 87 117 60 0 0 0 0 0 0 1 0 0 0
20 42.0 10.0 10.0 40.0 72 102 21 0 0 0 0 1 1 0 0 0 0
21 42.0 15.0 10.0 10.0 122 152 20 0 0 0 0 0 1 0 0 0 0
22 40.0 5.0 10.0 10.0 67 97 45 1 1 0 0 0 1 1 0 0 0
23 40.0 15.0 10.0 40.0 92 122 88 1 0 0 0 0 0 0 0 0 0
24 38.0 5.0 10.0 30.0 65 95 81 1 0 0 0 0 0 0 0 0 0
25 38.0 15.0 10.0 10.0 148 178 16 0 0 0 0 0 1 0 0 0 0
26 35.0 5.0 10.0 20.0 154 184 28 0 0 1 0 0 0 1 0 0 0
27 95.0 30.0 10.0 30.0 115 145 75 1 0 0 0 0 0 0 0 0 0
28 95.0 35.0 10.0 20.0 62 92 64 0 1 1 0 0 1 0 0 0 0
29 92.0 30.0 10.0 10.0 62 92 45 0 0 1 1 0 0 0 0 0 1
30 90.0 35.0 10.0 10.0 67 97 62 0 0 0 0 0 0 1 0 0 0
31 88.0 30.0 10.0 10.0 74 104 25 1 0 0 0 0 0 1 0 0 0
32 88.0 35.0 10.0 20.0 61 91 45 0 1 0 1 0 0 0 0 0 0
33 87.0 30.0 10.0 10.0 131 161 60 0 0 0 0 0 1 0 0 0 0
34 85.0 25.0 10.0 10.0 51 81 21 0 0 0 0 0 1 1 0 0 0
35 85.0 35.0 10.0 30.0 111 141 11 0 1 0 1 1 0 0 0 0 1
36 67.0 85.0 10.0 20.0 139 169 21 0 0 0 0 0 0 1 0 1 1
37 65.0 85.0 10.0 40.0 43 73 76 0 1 0 0 0 0 0 0 0 1
38 65.0 82.0 10.0 10.0 124 154 88 1 0 0 0 0 0 0 1 0 1
39 62.0 80.0 10.0 30.0 75 105 77 0 0 0 0 1 0 0 1 0 0
40 60.0 80.0 10.0 10.0 37 67 71 0 1 0 0 0 0 1 1 0 0
41 60.0 85.0 10.0 30.0 85 115 29 0 0 0 0 0 1 0 0 0 0
42 58.0 75.0 10.0 20.0 92 122 10 1 0 1 0 0 0 0 1 0 0
43 55.0 80.0 10.0 10.0 33 63 63 0 0 0 0 0 1 0 0 0 0
44 55.0 85.0 10.0 20.0 128 158 55 1 0 0 0 0 0 0 0 0 1
45 55.0 82.0 10.0 10.0 64 94 32 0 0 0 0 0 1 0 0 0 00
46 20.0 82.0 10.0 10.0 37 67 69 0 0 1 0 1 1 0 0 0 0
47 18.0 80.0 10.0 10.0 113 143 61 1 0 1 1 1 0 0 1 0 0
48 2.0 45.0 10.0 10.0 45 75 68 0 0 0 1 0 1 1 0 0 1
49 42.0 5.0 10.0 10.0 151 181 62 0 0 0 0 1 0 0 1 0 1
50 42.0 12.0 10.0 10.0 104 134 87 0 0 0 0 0 1 0 0 0 0
51 72.0 35.0 10.0 30.0 116 146 20 0 0 0 1 0 1 0 0 0 0
52 55.0 20.0 10.0 19.0 83 113 59 0 0 0 0 0 1 0 0 1 0
53 25.0 30.0 10.0 3.0 52 82 27 0 1 0 0 0 0 0 0 0 0
54 20.0 50.0 10.0 5.0 91 121 3 0 0 0 0 0 0 0 0 0 1
55 55.0 60.0 10.0 16.0 139 169 35 0 1 0 1 0 0 0 0 1 1
56 30.0 60.0 10.0 16.0 140 170 60 0 0 1 0 0 0 0 0 0 0
57 50.0 35.0 10.0 19.0 130 160 37 0 0 0 0 0 1 0 0 0 0
58 30.0 25.0 10.0 23.0 96 126 70 1 0 0 0 0 0 0 1 1 0
59 15.0 10.0 10.0 20.0 152 182 62 0 0 0 0 0 0 0 0 1 0
60 10.0 20.0 10.0 19.0 42 72 8 0 0 0 0 1 0 0 0 1 0
61 15.0 60.0 10.0 17.0 155 185 50 0 0 1 0 1 0 1 0 0 0
62 45.0 65.0 10.0 9.0 66 96 74 0 0 0 0 1 1 0 0 0 0
63 65.0 35.0 10.0 3.0 52 82 95 0 0 0 1 0 0 0 0 0 0
64 65.0 20.0 10.0 6.0 39 69 42 0 0 0 0 0 0 0 0 1 0
65 45.0 30.0 10.0 17.0 53 83 23 0 1 0 0 0 0 0 0 0 0
66 35.0 40.0 10.0 16.0 11 41 85 1 0 1 0 0 0 0 0 0 0
67 41.0 37.0 10.0 16.0 133 163 63 0 0 0 0 0 1 0 0 0 0
68 64.0 42.0 10.0 9.0 70 100 67 0 0 0 0 0 0 0 1 0 0
69 40.0 60.0 10.0 21.0 144 174 9 0 0 1 0 0 0 0 0 0 0
70 31.0 52.0 10.0 27.0 41 71 7 0 0 1 0 1 1 1 1 0 0
71 35.0 69.0 10.0 23.0 180 210 99 1 0 0 1 0 0 0 0 0 1
72 65.0 55.0 10.0 14.0 65 95 9 0 0 0 0 1 1 0 0 1 0
73 63.0 65.0 10.0 8.0 30 60 62 1 0 0 1 0 0 0 0 0 1
74 2.0 60.0 10.0 5.0 77 107 85 0 1 0 0 0 0 0 1 0 0
75 20.0 20.0 10.0 8.0 141 171 76 0 0 1 1 1 0 0 0 1 1
76 5.0 5.0 10.0 16.0 74 104 35 0 0 0 0 0 0 0 0 1 1
77 60.0 12.0 10.0 31.0 75 105 14 0 0 0 0 0 0 0 0 1 0
78 23.0 3.0 10.0 7.0 150 180 54 0 0 0 1 0 1 0 1 0 0
79 8.0 56.0 10.0 27.0 90 120 96 0 0 0 0 0 0 0 0 1 0
80 6.0 68.0 10.0 30.0 89 119 80 1 0 0 0 1 1 0 1 0 1
81 47.0 47.0 10.0 13.0 192 222 4 0 1 0 0 0 0 0 0 0 0
82 49.0 58.0 10.0 10.0 86 116 92 0 0 0 0 0 0 0 1 0 0
83 27.0 43.0 10.0 9.0 42 72 93 1 1 0 0 0 0 1 0 0 0
84 37.0 31.0 10.0 14.0 35 65 87 0 1 0 0 0 0 0 0 0 0
85 57.0 29.0 10.0 18.0 96 126 36 0 0 1 0 0 0 0 1 0 1
86 63.0 23.0 10.0 2.0 87 117 64 1 0 0 0 0 0 0 0 0 0
87 21.0 24.0 10.0 28.0 87 117 61 1 1 1 1 0 0 0 1 0 0
88 12.0 24.0 10.0 13.0 90 120 14 0 0 0 1 0 1 0 0 0 0
89 24.0 58.0 10.0 19.0 67 97 63 0 1 0 0 0 0 1 0 0 1
90 67.0 5.0 10.0 25.0 144 174 40 0 0 0 0 0 0 1 1 0 0
91 37.0 47.0 10.0 6.0 86 116 95 0 0 0 0 1 0 0 0 0 0
92 49.0 42.0 10.0 13.0 167 197 70 0 0 0 1 0 0 0 0 0 0
93 53.0 43.0 10.0 14.0 14 44 2 0 1 0 0 1 0 1 0 0 0
94 61.0 52.0 10.0 3.0 178 208 81 1 0 1 0 0 0 0 0 0 0
95 57.0 48.0 10.0 23.0 95 125 52 0 0 0 1 1 1 0 0 1 0
96 56.0 37.0 10.0 6.0 34 64 22 0 0 0 0 0 0 0 1 0 0
97 55.0 54.0 10.0 26.0 132 162 40 1 0 0 0 1 1 0 0 0 0
98 4.0 18.0 10.0 35.0 120 150 13 1 0 1 0 1 0 0 0 0 1
99 26.0 52.0 10.0 9.0 46 76 56 0 1 0 0 1 0 0 0 0 0
100 26.0 35.0 10.0 15.0 77 107 77 1 0 0 0 0 0 0 0 0 0
101 31.0 67.0 10.0 3.0 180 210 83 0 0 0 0 0 0 0 1 0 1